19,9	0,0	15,8	15,7	0,0	0,0	0,0	0,0	0,0	18,2
12,9	12,9	0,0	12,4	10,3	0,0	0,0	10,4	0,0	0,0
0,0	0,0	18,5	0,0	11,0	9,2	0,0	0,0	17,3	0,0
12,3	0,0	18,7	0,0	0,0	0,0	11,4	0,0	0,0	0,0
0,0	11,2	0,0	10,7	17,0	0,0	0,0	5,4	0,0	0,0
0,0	17,3	11,8	0,0	7,6	6,2	0,0	0,0	13,3	0,0
0,0	8,1	0,0	16,2	0,0	0,0	15,8	0,0	0,0	14,3
5,8	0,0	5,8	0,0	0,0	0,0	0,0	0,0	0,0	15,0
0,0	7,0	0,0	13,1	7,1	0,0	0,0	18,1	0,0	0,0
0,0	0,0	11,0	0,0	0,0	15,7	6,8	0,0	0,0	18,3
									
2,9	3,2	3,9	3,9	3,0	5,0	3,8	3,5	4,2	2,6
